NAME 
ROWS
 N  OBJ
 L  R0      
 E  R1      
 E  R2      
 E  R3      
 E  R4      
 E  R5      
 E  R6      
 E  R7      
 E  R8      
 E  R9      
 E  R10     
 E  R11     
 E  R12     
 E  R13     
 E  R14     
 E  R15     
 E  R16     
 E  R17     
 E  R18     
 E  R19     
 E  R20     
 E  R21     
 E  R22     
 E  R23     
 E  R24     
 E  R25     
 E  R26     
 E  R27     
 E  R28     
 E  R29     
 E  R30     
COLUMNS
    MARKER    'MARKER'                 'INTORG'
    I0(3)     OBJ       41
    I0(3)     R0        -26
    I0(3)     R1        16
    I0(3)     R30       1
    I1(3)     OBJ       145
    I1(3)     R0        161
    I1(3)     R2        9
    I1(3)     R30       1
    I2(3)     OBJ       112
    I2(3)     R0        6
    I2(3)     R3        16
    I2(3)     R30       1
    I3(3)     OBJ       180
    I3(3)     R0        53
    I3(3)     R4        11
    I3(3)     R30       1
    I4(3)     OBJ       6
    I4(3)     R0        151
    I4(3)     R5        17
    I4(3)     R30       1
    I5(3)     OBJ       -91
    I5(3)     R0        33
    I5(3)     R6        19
    I5(3)     R30       1
    I6(3)     OBJ       -136
    I6(3)     R0        8
    I6(3)     R7        14
    I6(3)     R30       1
    I7(3)     OBJ       38
    I7(3)     R0        -190
    I7(3)     R8        13
    I7(3)     R30       1
    I8(3)     OBJ       2
    I8(3)     R0        184
    I8(3)     R9        18
    I8(3)     R30       1
    I9(3)     OBJ       50
    I9(3)     R0        123
    I9(3)     R10       11
    I9(3)     R30       1
    I10(3)    OBJ       -4
    I10(3)    R0        187
    I10(3)    R11       6
    I10(3)    R30       1
    I11(3)    OBJ       -39
    I11(3)    R0        39
    I11(3)    R12       11
    I11(3)    R30       1
    I12(3)    OBJ       177
    I12(3)    R0        -109
    I12(3)    R13       18
    I12(3)    R30       1
    I13(3)    OBJ       -123
    I13(3)    R0        21
    I13(3)    R14       13
    I13(3)    R30       1
    I14(3)    OBJ       -143
    I14(3)    R0        161
    I14(3)    R15       10
    I14(3)    R30       1
    I15(3)    OBJ       -76
    I15(3)    R0        -19
    I15(3)    R16       15
    I15(3)    R30       1
    I16(3)    OBJ       128
    I16(3)    R0        99
    I16(3)    R17       15
    I16(3)    R30       1
    I17(3)    OBJ       -136
    I17(3)    R0        -108
    I17(3)    R18       14
    I17(3)    R30       1
    I18(3)    OBJ       21
    I18(3)    R0        -184
    I18(3)    R19       13
    I18(3)    R30       1
    I19(3)    OBJ       104
    I19(3)    R0        -164
    I19(3)    R20       18
    I19(3)    R30       1
    I20(3)    OBJ       102
    I20(3)    R0        -86
    I20(3)    R21       3
    I20(3)    R30       1
    I21(3)    OBJ       124
    I21(3)    R0        -119
    I21(3)    R22       1
    I21(3)    R30       1
    I22(3)    OBJ       108
    I22(3)    R0        119
    I22(3)    R23       5
    I22(3)    R30       1
    I23(3)    OBJ       186
    I23(3)    R0        -154
    I23(3)    R24       19
    I23(3)    R30       1
    I24(3)    OBJ       -113
    I24(3)    R0        5
    I24(3)    R25       19
    I24(3)    R30       1
    I25(3)    OBJ       -16
    I25(3)    R0        -110
    I25(3)    R26       7
    I25(3)    R30       1
    I26(3)    OBJ       179
    I26(3)    R0        94
    I26(3)    R27       4
    I26(3)    R30       1
    MARKER    'MARKER'                 'INTEND'
    C27(27)   OBJ       5
    C27(27)   R0        3
    C27(27)   R1        4
    C27(27)   R2        16
    C27(27)   R3        15
    C27(27)   R4        8
    C27(27)   R5        9
    C27(27)   R6        3
    C27(27)   R7        15
    C27(27)   R8        4
    C27(27)   R9        12
    C27(27)   R10       -1
    C27(27)   R11       2
    C27(27)   R12       12
    C27(27)   R13       12
    C27(27)   R14       16
    C27(27)   R16       17
    C27(27)   R17       8
    C27(27)   R18       10
    C27(27)   R19       4
    C27(27)   R20       18
    C27(27)   R23       1
    C27(27)   R24       7
    C27(27)   R25       16
    C27(27)   R26       13
    C27(27)   R27       12
    C27(27)   R28       7
    C27(27)   R29       15
    C28(30)   OBJ       2
    C28(30)   R0        5
    C28(30)   R1        9
    C28(30)   R2        19
    C28(30)   R3        9
    C28(30)   R4        18
    C28(30)   R5        1
    C28(30)   R6        3
    C28(30)   R7        8
    C28(30)   R8        18
    C28(30)   R9        2
    C28(30)   R10       5
    C28(30)   R11       -1
    C28(30)   R12       16
    C28(30)   R13       6
    C28(30)   R14       9
    C28(30)   R15       16
    C28(30)   R16       1
    C28(30)   R17       2
    C28(30)   R18       15
    C28(30)   R19       12
    C28(30)   R20       13
    C28(30)   R21       11
    C28(30)   R22       14
    C28(30)   R23       12
    C28(30)   R24       8
    C28(30)   R25       12
    C28(30)   R26       10
    C28(30)   R27       -1
    C28(30)   R28       5
    C28(30)   R29       -1
    C29(30)   OBJ       7
    C29(30)   R0        7
    C29(30)   R1        16
    C29(30)   R2        6
    C29(30)   R3        1
    C29(30)   R4        4
    C29(30)   R5        13
    C29(30)   R6        13
    C29(30)   R7        14
    C29(30)   R8        6
    C29(30)   R9        6
    C29(30)   R10       5
    C29(30)   R11       8
    C29(30)   R12       2
    C29(30)   R13       3
    C29(30)   R14       -1
    C29(30)   R15       4
    C29(30)   R16       16
    C29(30)   R17       14
    C29(30)   R18       13
    C29(30)   R19       9
    C29(30)   R20       4
    C29(30)   R21       18
    C29(30)   R22       9
    C29(30)   R23       2
    C29(30)   R24       8
    C29(30)   R25       6
    C29(30)   R26       17
    C29(30)   R27       -1
    C29(30)   R28       7
    C29(30)   R29       1
    C30(1)    R1        1
    C31(1)    R2        1
    C32(1)    R3        1
    C33(1)    R4        1
    C34(1)    R5        1
    C35(1)    R6        1
    C36(1)    R7        1
    C37(1)    R8        1
    C38(1)    R9        1
    C39(1)    R10       1
    C40(1)    R11       1
    C41(1)    R12       1
    C42(1)    R13       1
    C43(1)    R14       1
    C44(1)    R15       1
    C45(1)    R16       1
    C46(1)    R17       1
    C47(1)    R18       1
    C48(1)    R19       1
    C49(1)    R20       1
    C50(1)    R21       1
    C51(1)    R22       1
    C52(1)    R23       1
    C53(1)    R24       1
    C54(1)    R25       1
    C55(1)    R26       1
    C56(1)    R27       1
    C57(1)    R28       1
    C58(1)    R29       1
    C59(1)    R30       1
RHS
    RHS1      R0        30
    RHS1      R1        66
    RHS1      R2        58
    RHS1      R3        96
    RHS1      R4        70
    RHS1      R5        77
    RHS1      R6        65
    RHS1      R7        91
    RHS1      R8        56
    RHS1      R9        96
    RHS1      R10       64
    RHS1      R11       95
    RHS1      R12       66
    RHS1      R13       85
    RHS1      R14       59
    RHS1      R15       76
    RHS1      R16       58
    RHS1      R17       50
    RHS1      R18       69
    RHS1      R19       74
    RHS1      R20       87
    RHS1      R21       89
    RHS1      R22       86
    RHS1      R23       56
    RHS1      R24       55
    RHS1      R25       51
    RHS1      R26       88
    RHS1      R27       97
    RHS1      R28       59
    RHS1      R29       58
    RHS1      R30       9
BOUNDS
 UP BND1      I0(3)     1
 UP BND1      I1(3)     1
 UP BND1      I2(3)     1
 UP BND1      I3(3)     1
 UP BND1      I4(3)     1
 UP BND1      I5(3)     1
 UP BND1      I6(3)     1
 UP BND1      I7(3)     1
 UP BND1      I8(3)     1
 UP BND1      I9(3)     1
 UP BND1      I10(3)    1
 UP BND1      I11(3)    1
 UP BND1      I12(3)    1
 UP BND1      I13(3)    1
 UP BND1      I14(3)    1
 UP BND1      I15(3)    1
 UP BND1      I16(3)    1
 UP BND1      I17(3)    1
 UP BND1      I18(3)    1
 UP BND1      I19(3)    1
 UP BND1      I20(3)    1
 UP BND1      I21(3)    1
 UP BND1      I22(3)    1
 UP BND1      I23(3)    1
 UP BND1      I24(3)    1
 UP BND1      I25(3)    1
 UP BND1      I26(3)    1
ENDATA
